results/res_prop_muc/res_Cimatti_mathsat_cores/QF_UF/PEQ019_size6.smt.smt2.out

real	0m7.220s
user	0m6.834s
sys	0m0.328s
